{"lblp_lower": [310.2615296741393, 325.60428571428577, 333.24387065637075, 341.31666666666666, 346.99999999999994, 351.8], "cuttingPlaneBendInfo": [{"tot_cut_value": 0, "TOT_gen_cut": 0, "tot_time_opt": 0, "max_time_opt": 0}, {"tot_cut_value": 0, "TOT_gen_cut": 0, "tot_time_opt": 0, "max_time_opt": 0}, {"tot_cut_value": 0, "TOT_gen_cut": 0, "tot_time_opt": 0, "max_time_opt": 0}, {"tot_cut_value": 0, "TOT_gen_cut": 0, "tot_time_opt": 0, "max_time_opt": 0}, {"tot_cut_value": 0, "TOT_gen_cut": 0, "tot_time_opt": 0, "max_time_opt": 0}, {"tot_cut_value": 0, "TOT_gen_cut": 0, "tot_time_opt": 0, "max_time_opt": 0}], "time_compress": [0, 0, 0, 0, 0, 0], "ub_lp": [465.00000000000006, 433.6, 402.80000000000007, 400.80000000000007, 351.80000000000007, 351.8], "prob_sizes_at_start": [{"timeGraph": 34, "ngGraph": 27}, {"timeGraph": 98, "ngGraph": 68}, {"timeGraph": 96, "ngGraph": 99}, {"timeGraph": 124, "ngGraph": 201}, {"timeGraph": 187, "ngGraph": 241}, {"timeGraph": 191, "ngGraph": 230}], "prob_sizes_after_compress": [{"timeGraph": 5, "ngGraph": 23}, {"timeGraph": 31, "ngGraph": 26}, {"timeGraph": 38, "ngGraph": 59}, {"timeGraph": 58, "ngGraph": 89}, {"timeGraph": 69, "ngGraph": 84}, {"timeGraph": 56, "ngGraph": 67}], "prob_sizes_after_split": [{"timeGraph": 98, "ngGraph": 68}, {"timeGraph": 96, "ngGraph": 99}, {"timeGraph": 124, "ngGraph": 201}, {"timeGraph": 187, "ngGraph": 241}, {"timeGraph": 191, "ngGraph": 230}, {"timeGraph": 88, "ngGraph": 102}], "did_compress": [true, true, true, true, true, true], "lp_time_project": [0.44333600997924805, 0.06903719902038574, 0.14773297309875488, 0.24727582931518555, 0.05897974967956543, 0.034268856048583984], "lp_time_LB": [0.006999015808105469, 0.015663862228393555, 0.016221046447753906, 0.04366111755371094, 0.07123708724975586, 0.04630303382873535], "ilp_time": [], "history_of_graphs_by_iter": [], "ROOT_LP_PRIOR_ADDING_CUTS": 351.8, "OUR_ilp_objective": 351.8, "OUR_MIP_Lower_Bound": 351.8, "OUR_ilp_time": 0.020427942276000977, "OUR_gurobi_MILP_str": "Gurobi Optimizer version 12.0.1 build v12.0.1rc0 (mac64[arm] - Darwin 24.5.0 24F74)\n\nCPU model: Apple M1\nThread count: 8 physical cores, 8 logical processors, using up to 8 threads\n\nNon-default parameters:\nTimeLimit  3000\n\nWLS license 2690165 - registered to Optym\nOptimize a model with 1957 rows, 1517 columns and 7915 nonzeros\nModel fingerprint: 0xee424172\nVariable types: 52 continuous, 1465 integer (547 binary)\nCoefficient statistics:\n  Matrix range     [3e-01, 2e+02]\n  Objective range  [2e+00, 8e+01]\n  Bounds range     [1e+00, 2e+02]\n  RHS range        [1e+00, 2e+02]\nUsing branch priorities.\nPresolve removed 1803 rows and 1330 columns\nPresolve time: 0.01s\nPresolved: 154 rows, 187 columns, 803 nonzeros\nVariable types: 30 continuous, 157 integer (155 binary)\nFound heuristic solution: objective 545.1000000\nFound heuristic solution: objective 480.5000000\nFound heuristic solution: objective 352.0000000\n\nRoot relaxation: objective 3.518000e+02, 145 iterations, 0.00 seconds (0.00 work units)\n\n    Nodes    |    Current Node    |     Objective Bounds      |     Work\n Expl Unexpl |  Obj  Depth IntInf | Incumbent    BestBd   Gap | It/Node Time\n\n*    0     0               0     351.8000000  351.80000  0.00%     -    0s\n\nExplored 1 nodes (145 simplex iterations) in 0.02 seconds (0.02 work units)\nThread count was 8 (of 8 available processors)\n\nSolution count 4: 351.8 352 480.5 545.1 \n\nOptimal solution found (tolerance 1.00e-04)\nBest objective 3.518000000000e+02, best bound 3.518000000000e+02, gap 0.0000%\n", "jy_opt": {"ParetoEps": 1e-05, "turn_off_time_windows": false, "deactivate_time_graph": false, "deactivate_demand_graph": false, "epsilon": 0.0001, "weight_slack_projector": 1e-05, "weight_compress": 0.01, "num_cust_use": 25, "dem_step_sz": 1, "time_step_sz": 1, "use_compression": 1, "max_iterations_loop_compress_project": 100, "do_round_dist_times": 1, "my_shift_bet_time_win": 0.0001, "num_terms_per_bin_init_construct": 100, "allOneBig_init": 0, "min_inc_2_compress": 1e-05, "save_graph_each_iter": 0, "use_Xpress": 0, "use_ineq": 1, "xpress_file_loc": "/Users/julian/Documents/FICO_Xpress_Config/xpauth.xpr", "run_baseline": 0, "verbose": 0, "use_NG_graph": 1, "num_NG": 9, "in_demo_mode": 0, "threshold_split": 0.1, "offset_cost_edge_project": 0, "use_classic_compress": 1, "use_classic_compress_last": 1, "num_thresh_split_projector": 1000, "lplb_solver": 4, "compresss_solver": 0, "proj_solver": 4, "use_julians_custom_lp_solver": 0, "do_ilp": 1, "roundingDiscretization_num_digits_keep": 3, "doExrtraRemovalEdgesLB": 0, "use_gurobi": 1, "max_ILP_time": 3000, "use_fancy_ng_graph": 1, "use_dem_graph": 0, "use_time_graph": 1, "num_multiplys_demand": 0, "DEBUG_ALLOW_DUMB_EDGES": 0, "add_all_ng_split_at_end": 0, "do_split_based_init": 0, "think_compress": [0], "use_delta_in_milp": 1, "use_delta_in_lp": 1, "turn_off_non_active_fg_project": 0, "use_new_valid_ineq": 0, "digit_mult_use": 10, "use_branch_on_g": true, "LAB_MP_ON": 0, "LAB_MP_neigh_use_power": 9, "LAB_MP_num_ineq_use": 10, "do_remove_actions_from_incumbant": true, "ub_use_remove": 351.8, "use_packing_in_construction": 1, "maxVarsAdd_in_ITER": 10, "use_ng_size_init": 0, "do_presolve": 0, "use_diving_ineq": 1, "BEND_MIN_LP_OBJECTIVE_CUT": 0.1, "BEND_USE_RAND": 0, "BEND_MAX_SIZE_CHOOSE_K": 230, "BEND_VAL_STOP_ADDING_CUTS": 100000000, "BEND_MY_SIZES_USE": [9], "NUMERICAL_BEND_OFFSET_COST_CUT": 0.0001, "NUMERICAL_BEND_EPSILON_MULT_PARETO_OBJ": 0.001, "NO_PARETO_NUMERICAL_BEND_OFFSET_COST_CUT": 0, "NO_PARETO_BEND_VAL_STOP_ADDING_CUTS": 1, "NO_PARETO_EPSILON_MAX_VAL_CON": 0.01, "BENDERS_NEIGH_SZ_USE": 9, "Actions_of_given_sol": [], "all_vars_binary": 1, "restore_after_each_step": 1, "use_ng": 1, "compress_solver": 1, "DEBUG_NG_turn_off_CLEAN": false, "max_nodes_split": Infinity}, "output_ilp_solution": {"delta_capRem_0": 12.0, "delta_timeRem_0": 86.0, "delta_capRem_1": 3.0, "delta_timeRem_1": 53.7, "delta_capRem_2": 13.0, "delta_timeRem_2": 99.0, "delta_capRem_3": 7.0, "delta_timeRem_3": 69.0, "delta_capRem_4": 15.0, "delta_timeRem_4": 111.0, "delta_capRem_5": 18.0, "delta_timeRem_5": 143.8, "delta_capRem_6": 20.0, "delta_timeRem_6": 164.0, "delta_capRem_7": 16.0, "delta_timeRem_7": 128.0, "delta_capRem_8": 8.0, "delta_timeRem_8": 119.0, "delta_capRem_9": 6.0, "delta_timeRem_9": 104.0, "delta_capRem_10": 16.0, "delta_timeRem_10": 168.1, "delta_capRem_11": 19.0, "delta_timeRem_11": 207.7, "delta_capRem_12": 3.0, "delta_timeRem_12": 87.0, "delta_capRem_13": 17.0, "delta_timeRem_13": 183.9, "delta_capRem_14": 12.0, "delta_timeRem_14": 152.1, "delta_capRem_15": 10.0, "delta_timeRem_15": 140.1, "delta_capRem_16": 2.0, "delta_timeRem_16": 65.9, "delta_capRem_17": 10.0, "delta_timeRem_17": 138.7, "delta_capRem_18": 14.0, "delta_timeRem_18": 154.0, "delta_capRem_19": 4.0, "delta_timeRem_19": 104.6, "delta_capRem_20": 20.0, "delta_timeRem_20": 195.0, "delta_capRem_21": 8.0, "delta_timeRem_21": 118.0, "delta_capRem_22": 17.0, "delta_timeRem_22": 170.4, "delta_capRem_23": 1.0, "delta_timeRem_23": 62.0, "delta_capRem_24": 3.0, "delta_timeRem_24": 82.4, "act_0_3": 1, "act_1_26": 1, "act_2_0": 1, "act_3_1": 1, "act_4_2": 1, "act_5_7": 1, "act_6_5": 1, "act_7_4": 1, "act_8_9": 1, "act_9_12": 1, "act_10_14": 1, "act_11_13": 1, "act_12_16": 1, "act_13_10": 1, "act_14_15": 1, "act_15_8": 1, "act_16_26": 1, "act_17_21": 1, "act_18_17": 1, "act_19_24": 1, "act_20_22": 1, "act_21_19": 1, "act_22_18": 1, "act_23_26": 1, "act_24_23": 1, "act_25_6": 1, "act_25_11": 1, "act_25_20": 1}, "Actions_of_given_sol": "none just used source and sink terms", "actions_used": ["act_0_3", "act_1_26", "act_2_0", "act_3_1", "act_4_2", "act_5_7", "act_6_5", "act_7_4", "act_8_9", "act_9_12", "act_10_14", "act_11_13", "act_12_16", "act_13_10", "act_14_15", "act_15_8", "act_16_26", "act_17_21", "act_18_17", "act_19_24", "act_20_22", "act_21_19", "act_22_18", "act_23_26", "act_24_23", "act_25_6", "act_25_11", "act_25_20"], "init_default_solution_is_empty": false, "objective_of_initial_sol": 1884.3999999999999, "my_paths": "[[25, 6, 5, 7, 4, 2, 0, 3, 1, 26], [25, 11, 13, 10, 14, 15, 8, 9, 12, 16, 26], [25, 20, 22, 18, 17, 21, 19, 24, 23, 26]]"}